50
120
100
97
96
92
89
88
88
87
83
75
75
72
71
70
69
66
63
62
62
61
60
58
50
47
46
40
40
37
36
32
31
30
28
27
27
26
24
18
16
14
13
12
10
10
10
8
7
5
4
2
